This is Ipopt version 3.10.0, running with linear solver ma27.

Number of nonzeros in equality constraint Jacobian...:        2
Number of nonzeros in inequality constraint Jacobian.:        4
Number of nonzeros in Lagrangian Hessian.............:        0

Total number of variables............................:        2
                     variables with only lower bounds:        0
                variables with lower and upper bounds:        2
                     variables with only upper bounds:        0
Total number of equality constraints.................:        1
Total number of inequality constraints...............:        2
        inequality constraints with only lower bounds:        0
   inequality constraints with lower and upper bounds:        0
        inequality constraints with only upper bounds:        2

iter    objective    inf_pr   inf_du lg(mu)  ||d||  lg(rg) alpha_du alpha_pr  ls
   0  9.0000000e+04 8.75e-01 3.00e+02   0.0 0.00e+00    -  0.00e+00 0.00e+00   0
   1  8.9697286e+04 8.81e-01 7.83e+03   2.1 2.74e+02    -  5.81e-01 4.06e-03h  1
   2  8.9835374e+04 8.78e-01 8.44e+03  -3.9 2.17e+02    -  3.68e-03 3.40e-03h  1
   3  1.2470981e+05 3.53e-01 3.42e+05   3.6 2.38e+02    -  3.89e-02 8.29e-01f  1
   4  1.1140335e+05 5.15e-01 3.04e+05   2.7 3.06e+02    -  1.00e+00 8.90e-02f  1
   5  1.2532693e+05 3.46e-01 2.77e+05   2.9 1.04e+02    -  1.00e+00 2.78e-01h  1
   6  1.2540934e+05 3.46e-01 8.61e+05   3.0 2.44e+00    -  1.00e+00 1.10e-01h  1
   7  1.2542035e+05 3.45e-01 5.02e+08   3.8 1.55e+01    -  1.00e+00 1.49e-03h  1
   8  1.2542043e+05 3.45e-01 6.78e+12   2.7 3.16e+00    -  1.00e+00 7.34e-05h  1
   9r 1.2542043e+05 3.45e-01 1.00e+03   3.0 0.00e+00    -  0.00e+00 3.67e-07R  2

Number of Iterations....: 9

                                   (scaled)                 (unscaled)
Objective...............:   1.2542043221384719e+05    1.2542043221384719e+05
Dual infeasibility......:   1.2496988243512294e+03    1.2496988243512294e+03
Constraint violation....:   3.4547454323925247e-01    3.4547454323925247e-01
Complementarity.........:   9.3502366646689268e+02    9.3502366646689268e+02
Overall NLP error.......:   3.7411355010421903e+02    1.2496988243512294e+03


Number of objective function evaluations             = 12
Number of objective gradient evaluations             = 11
Number of equality constraint evaluations            = 12
Number of inequality constraint evaluations          = 12
Number of equality constraint Jacobian evaluations   = 11
Number of inequality constraint Jacobian evaluations = 11
Number of Lagrangian Hessian evaluations             = 0
Total CPU secs in IPOPT (w/o function evaluations)   =      0.007
Total CPU secs in NLP function evaluations           =      0.000

EXIT: Stopping optimization at current point as requested by user.
